&CONTROL
  calculation = 'scf'
  etot_conv_thr =   1.6000000000d-04
  forc_conv_thr =   1.0000000000d-04
  outdir = './out/'
  prefix = 'AC_Ph_1'
  pseudo_dir = './pseudo/'
  tprnfor = .true.
  tstress = .true.
  verbosity = 'high'
/
&SYSTEM
  degauss =   1.4699723600d-02
  ecutrho =   4.8000000000d+02
  ecutwfc =   6.0000000000d+01
  ibrav = 0
  nat = 16
  nosym = .false.
  ntyp = 2
  occupations = 'smearing'
  smearing = 'cold'
/
&ELECTRONS
  conv_thr =   3.2000000000d-09
  electron_maxstep = 80
  mixing_beta =   4.0000000000d-01
/
ATOMIC_SPECIES
H      1.00794 H.pbe-rrkjus_psl.1.0.0.UPF
N      14.0067 N.pbe-n-rrkjus_psl.1.0.0.UPF
ATOMIC_POSITIONS (crystal)
N             0.1965968795        0.1965968795        0.1965968795
N             0.3034031205        0.8034031205        0.6965968795
N             0.8034031205        0.6965968795        0.3034031205
N             0.6965968795        0.3034031205        0.8034031205
H             0.3510363375        0.2703623281        0.0960457713
H             0.1489636625        0.7296376719        0.5960457713
H             0.6489636625        0.7703623281        0.4039542287
H             0.8510363375        0.2296376719        0.9039542287
H             0.0960457713        0.3510363375        0.2703623281
H             0.5960457713        0.1489636625        0.7296376719
H             0.4039542287        0.6489636625        0.7703623281
H             0.9039542287        0.8510363375        0.2296376719
H             0.2703623281        0.0960457713        0.3510363375
H             0.7296376719        0.5960457713        0.1489636625
H             0.7703623281        0.4039542287        0.6489636625
H             0.2296376719        0.9039542287        0.8510363375
K_POINTS automatic
7 7 7 0 0 0
CELL_PARAMETERS (angstrom)
   5.175656765   0.000000000   0.000000000
   0.000000000   5.175656765   0.000000000
   0.000000000   0.000000000   5.175656765
