&CONTROL
  calculation = 'bands'
  restart_mode = 'from_scratch'
  etot_conv_thr =   1.6000000000d-04
  forc_conv_thr =   1.0000000000d-04
  outdir = './out/'
  prefix = 'AC_Ph_1'
  pseudo_dir = './pseudo/'
  tprnfor = .true.
  tstress = .true.
  verbosity = 'high'
/
&SYSTEM
  degauss =   1.4699723600d-02
  ecutrho =   4.8000000000d+02
  ecutwfc =   6.0000000000d+01
  ibrav = 0
  nat = 16
  nosym = .false.
  ntyp = 2
  occupations = 'smearing'
  smearing = 'cold'
/
&ELECTRONS
  conv_thr =   3.2000000000d-09
  electron_maxstep = 80
  mixing_beta =   4.0000000000d-01
/
ATOMIC_SPECIES
H      1.00794 H.pbe-rrkjus_psl.1.0.0.UPF
N      14.0067 N.pbe-n-rrkjus_psl.1.0.0.UPF
ATOMIC_POSITIONS (crystal)
N             0.1963349497        0.1963349497        0.1963349497
N             0.3036650503        0.8036650503        0.6963349497
N             0.8036650503        0.6963349497        0.3036650503
N             0.6963349497        0.3036650503        0.8036650503
H             0.3503476091        0.2702379449        0.0959412349
H             0.1496523909        0.7297620551        0.5959412349
H             0.6496523909        0.7702379449        0.4040587651
H             0.8503476091        0.2297620551        0.9040587651
H             0.0959412349        0.3503476091        0.2702379449
H             0.5959412349        0.1496523909        0.7297620551
H             0.4040587651        0.6496523909        0.7702379449
H             0.9040587651        0.8503476091        0.2297620551
H             0.2702379449        0.0959412349        0.3503476091
H             0.7297620551        0.5959412349        0.1496523909
H             0.7702379449        0.4040587651        0.6496523909
H             0.2297620551        0.9040587651        0.8503476091
K_POINTS crystal_b
5
  0.0000 0.5000 0.0000 20  !L
  0.0000 0.0000 0.0000 30  !G
  -0.500 0.0000 -0.500 10  !X
  -0.375 0.2500 -0.375 30  !U
  0.0000 0.0000 0.0000 20  !G
CELL_PARAMETERS angstrom
      5.1850000000       0.0000000000       0.0000000000
      0.0000000000       5.1850000000       0.0000000000
      0.0000000000       0.0000000000       5.1850000000
