&CONTROL
  calculation = 'scf'
  etot_conv_thr =   1.6000000000d-04
  forc_conv_thr =   1.0000000000d-04
  outdir = './out/'
  prefix = 'AC_Ph_1'
  pseudo_dir = './pseudo/'
  tprnfor = .true.
  tstress = .true.
  verbosity = 'high'
/
&SYSTEM
  degauss =   1.4699723600d-02
  ecutrho =   4.8000000000d+02
  ecutwfc =   6.0000000000d+01
  ibrav = 0
  nat = 16
  nosym = .false.
  ntyp = 2
  occupations = 'smearing'
  smearing = 'cold'
/
&ELECTRONS
  conv_thr =   3.2000000000d-09
  electron_maxstep = 80
  mixing_beta =   4.0000000000d-01
/
ATOMIC_SPECIES
H      1.00794 H.pbe-rrkjus_psl.1.0.0.UPF
N      14.0067 N.pbe-n-rrkjus_psl.1.0.0.UPF
ATOMIC_POSITIONS crystal
N            0.2110000000       0.2110000000       0.2110000000 
N            0.2890000000       0.7890000000       0.7110000000 
N            0.7890000000       0.7110000000       0.2890000000 
N            0.7110000000       0.2890000000       0.7890000000 
H            0.3900000000       0.2430000000       0.1240000000 
H            0.1100000000       0.7570000000       0.6240000000 
H            0.6100000000       0.7430000000       0.3760000000 
H            0.8900000000       0.2570000000       0.8760000000 
H            0.1240000000       0.3900000000       0.2430000000 
H            0.6240000000       0.1100000000       0.7570000000 
H            0.3760000000       0.6100000000       0.7430000000 
H            0.8760000000       0.8900000000       0.2570000000 
H            0.2430000000       0.1240000000       0.3900000000 
H            0.7570000000       0.6240000000       0.1100000000 
H            0.7430000000       0.3760000000       0.6100000000 
H            0.2570000000       0.8760000000       0.8900000000 
K_POINTS automatic
7 7 7 0 0 0
CELL_PARAMETERS angstrom
      5.1850000000       0.0000000000       0.0000000000
      0.0000000000       5.1850000000       0.0000000000
      0.0000000000       0.0000000000       5.1850000000
